p cnf 200 1110
-101 -43 0
-101 10 0
-101 -21 0
-101 -72 0
-101 25 0
-101 -57 0
-101 60 0
-101 40 0
-101 36 0
-101 9 0
101 43 -10 21 72 -25 57 -60 -40 -36 -9 0
-102 82 0
-102 13 0
-102 50 0
-102 -44 0
-102 10 0
-102 -37 0
-102 70 0
-102 -52 0
-102 -89 0
-102 7 0
102 -82 -13 -50 44 -10 37 -70 52 89 -7 0
-103 25 0
-103 31 0
-103 29 0
-103 91 0
-103 -56 0
-103 65 0
-103 26 0
-103 -85 0
-103 -19 0
-103 40 0
103 -25 -31 -29 -91 56 -65 -26 85 19 -40 0
-104 -76 0
-104 61 0
-104 22 0
-104 -88 0
-104 19 0
-104 -32 0
-104 -84 0
-104 11 0
-104 -97 0
-104 -85 0
104 76 -61 -22 88 -19 32 84 -11 97 85 0
-105 31 0
-105 -5 0
-105 35 0
-105 52 0
-105 37 0
-105 68 0
-105 -76 0
-105 62 0
-105 -85 0
-105 86 0
105 -31 5 -35 -52 -37 -68 76 -62 85 -86 0
-106 -47 0
-106 19 0
-106 74 0
-106 -25 0
-106 -97 0
-106 -50 0
-106 6 0
-106 -77 0
-106 96 0
-106 59 0
106 47 -19 -74 25 97 50 -6 77 -96 -59 0
-107 8 0
-107 5 0
-107 13 0
-107 -20 0
-107 22 0
-107 36 0
-107 3 0
-107 -31 0
-107 -51 0
-107 -73 0
107 -8 -5 -13 20 -22 -36 -3 31 51 73 0
-108 88 0
-108 -97 0
-108 -66 0
-108 -91 0
-108 -78 0
-108 90 0
-108 -76 0
-108 34 0
-108 -23 0
-108 22 0
108 -88 97 66 91 78 -90 76 -34 23 -22 0
-109 61 0
-109 48 0
-109 -12 0
-109 73 0
-109 -71 0
-109 36 0
-109 55 0
-109 8 0
-109 -5 0
-109 -69 0
109 -61 -48 12 -73 71 -36 -55 -8 5 69 0
-110 93 0
-110 21 0
-110 17 0
-110 88 0
-110 -64 0
-110 -38 0
-110 -14 0
-110 1 0
-110 40 0
-110 -29 0
110 -93 -21 -17 -88 64 38 14 -1 -40 29 0
101 102 103 104 105 106 107 108 109 110 0
-111 -57 0
-111 -71 0
-111 -95 0
-111 -6 0
-111 -16 0
-111 -92 0
-111 68 0
-111 38 0
-111 96 0
-111 -39 0
111 57 71 95 6 16 92 -68 -38 -96 39 0
-112 -86 0
-112 85 0
-112 96 0
-112 3 0
-112 -100 0
-112 -47 0
-112 -49 0
-112 43 0
-112 30 0
-112 -92 0
112 86 -85 -96 -3 100 47 49 -43 -30 92 0
-113 84 0
-113 -35 0
-113 63 0
-113 -48 0
-113 69 0
-113 -46 0
-113 31 0
-113 32 0
-113 -30 0
-113 22 0
113 -84 35 -63 48 -69 46 -31 -32 30 -22 0
-114 -1 0
-114 84 0
-114 -70 0
-114 96 0
-114 98 0
-114 47 0
-114 37 0
-114 -88 0
-114 92 0
-114 -81 0
114 1 -84 70 -96 -98 -47 -37 88 -92 81 0
-115 -58 0
-115 -84 0
-115 64 0
-115 63 0
-115 -96 0
-115 61 0
-115 75 0
-115 20 0
-115 51 0
-115 -80 0
115 58 84 -64 -63 96 -61 -75 -20 -51 80 0
-116 80 0
-116 -26 0
-116 -9 0
-116 -78 0
-116 -4 0
-116 75 0
-116 -62 0
-116 20 0
-116 -96 0
-116 48 0
116 -80 26 9 78 4 -75 62 -20 96 -48 0
-117 -14 0
-117 -99 0
-117 78 0
-117 9 0
-117 -50 0
-117 -73 0
-117 -32 0
-117 18 0
-117 -62 0
-117 -38 0
117 14 99 -78 -9 50 73 32 -18 62 38 0
-118 42 0
-118 71 0
-118 92 0
-118 -46 0
-118 -99 0
-118 -76 0
-118 -52 0
-118 -17 0
-118 -49 0
-118 89 0
118 -42 -71 -92 46 99 76 52 17 49 -89 0
-119 -14 0
-119 -54 0
-119 68 0
-119 -87 0
-119 -74 0
-119 -30 0
-119 -15 0
-119 -60 0
-119 -22 0
-119 -3 0
119 14 54 -68 87 74 30 15 60 22 3 0
-120 -83 0
-120 67 0
-120 66 0
-120 42 0
-120 -4 0
-120 5 0
-120 -70 0
-120 -79 0
-120 -39 0
-120 -24 0
120 83 -67 -66 -42 4 -5 70 79 39 24 0
111 112 113 114 115 116 117 118 119 120 0
-121 -69 0
-121 -3 0
-121 65 0
-121 25 0
-121 -19 0
-121 75 0
-121 -86 0
-121 -41 0
-121 43 0
-121 -10 0
121 69 3 -65 -25 19 -75 86 41 -43 10 0
-122 -79 0
-122 17 0
-122 -61 0
-122 93 0
-122 48 0
-122 63 0
-122 -18 0
-122 85 0
-122 33 0
-122 -81 0
122 79 -17 61 -93 -48 -63 18 -85 -33 81 0
-123 79 0
-123 44 0
-123 -57 0
-123 -21 0
-123 56 0
-123 -81 0
-123 47 0
-123 36 0
-123 -97 0
-123 52 0
123 -79 -44 57 21 -56 81 -47 -36 97 -52 0
-124 -96 0
-124 31 0
-124 88 0
-124 -59 0
-124 14 0
-124 -85 0
-124 57 0
-124 -18 0
-124 -50 0
-124 -26 0
124 96 -31 -88 59 -14 85 -57 18 50 26 0
-125 -52 0
-125 83 0
-125 -58 0
-125 90 0
-125 86 0
-125 -74 0
-125 -8 0
-125 34 0
-125 71 0
-125 38 0
125 52 -83 58 -90 -86 74 8 -34 -71 -38 0
-126 -37 0
-126 26 0
-126 53 0
-126 -93 0
-126 98 0
-126 -24 0
-126 39 0
-126 8 0
-126 -81 0
-126 -83 0
126 37 -26 -53 93 -98 24 -39 -8 81 83 0
-127 -86 0
-127 27 0
-127 100 0
-127 -25 0
-127 88 0
-127 -69 0
-127 33 0
-127 -23 0
-127 -31 0
-127 -58 0
127 86 -27 -100 25 -88 69 -33 23 31 58 0
-128 -88 0
-128 -65 0
-128 9 0
-128 78 0
-128 92 0
-128 47 0
-128 -19 0
-128 -48 0
-128 81 0
-128 -56 0
128 88 65 -9 -78 -92 -47 19 48 -81 56 0
-129 -89 0
-129 -60 0
-129 99 0
-129 94 0
-129 -51 0
-129 -76 0
-129 -77 0
-129 -39 0
-129 -70 0
-129 11 0
129 89 60 -99 -94 51 76 77 39 70 -11 0
-130 98 0
-130 -37 0
-130 75 0
-130 56 0
-130 -51 0
-130 19 0
-130 27 0
-130 -12 0
-130 54 0
-130 -25 0
130 -98 37 -75 -56 51 -19 -27 12 -54 25 0
121 122 123 124 125 126 127 128 129 130 0
-131 94 0
-131 33 0
-131 -85 0
-131 31 0
-131 -93 0
-131 99 0
-131 61 0
-131 -7 0
-131 -44 0
-131 78 0
131 -94 -33 85 -31 93 -99 -61 7 44 -78 0
-132 -79 0
-132 -70 0
-132 58 0
-132 57 0
-132 66 0
-132 46 0
-132 -49 0
-132 -52 0
-132 -6 0
-132 -62 0
132 79 70 -58 -57 -66 -46 49 52 6 62 0
-133 -16 0
-133 -37 0
-133 74 0
-133 -3 0
-133 65 0
-133 -92 0
-133 -38 0
-133 -34 0
-133 -56 0
-133 96 0
133 16 37 -74 3 -65 92 38 34 56 -96 0
-134 -21 0
-134 56 0
-134 -66 0
-134 -51 0
-134 -52 0
-134 -93 0
-134 -10 0
-134 29 0
-134 -89 0
-134 -24 0
134 21 -56 66 51 52 93 10 -29 89 24 0
-135 -10 0
-135 -49 0
-135 60 0
-135 58 0
-135 -98 0
-135 26 0
-135 89 0
-135 30 0
-135 -59 0
-135 -78 0
135 10 49 -60 -58 98 -26 -89 -30 59 78 0
-136 -99 0
-136 -29 0
-136 21 0
-136 82 0
-136 -91 0
-136 -27 0
-136 -69 0
-136 8 0
-136 -78 0
-136 -40 0
136 99 29 -21 -82 91 27 69 -8 78 40 0
-137 40 0
-137 83 0
-137 58 0
-137 -7 0
-137 -14 0
-137 -6 0
-137 -77 0
-137 70 0
-137 62 0
-137 -52 0
137 -40 -83 -58 7 14 6 77 -70 -62 52 0
-138 -59 0
-138 -7 0
-138 100 0
-138 17 0
-138 43 0
-138 -48 0
-138 82 0
-138 27 0
-138 -95 0
-138 36 0
138 59 7 -100 -17 -43 48 -82 -27 95 -36 0
-139 -13 0
-139 62 0
-139 -71 0
-139 -64 0
-139 82 0
-139 80 0
-139 -10 0
-139 -94 0
-139 -54 0
-139 -21 0
139 13 -62 71 64 -82 -80 10 94 54 21 0
-140 96 0
-140 72 0
-140 36 0
-140 -15 0
-140 28 0
-140 85 0
-140 2 0
-140 22 0
-140 92 0
-140 46 0
140 -96 -72 -36 15 -28 -85 -2 -22 -92 -46 0
131 132 133 134 135 136 137 138 139 140 0
-141 1 0
-141 -79 0
-141 -66 0
-141 53 0
-141 -100 0
-141 -76 0
-141 35 0
-141 -71 0
-141 -88 0
-141 86 0
141 -1 79 66 -53 100 76 -35 71 88 -86 0
-142 54 0
-142 -21 0
-142 35 0
-142 45 0
-142 93 0
-142 -37 0
-142 28 0
-142 3 0
-142 40 0
-142 61 0
142 -54 21 -35 -45 -93 37 -28 -3 -40 -61 0
-143 41 0
-143 3 0
-143 -11 0
-143 16 0
-143 85 0
-143 21 0
-143 78 0
-143 -23 0
-143 -58 0
-143 -8 0
143 -41 -3 11 -16 -85 -21 -78 23 58 8 0
-144 59 0
-144 -24 0
-144 -79 0
-144 94 0
-144 7 0
-144 -85 0
-144 -82 0
-144 -27 0
-144 -49 0
-144 -21 0
144 -59 24 79 -94 -7 85 82 27 49 21 0
-145 71 0
-145 25 0
-145 -28 0
-145 42 0
-145 35 0
-145 93 0
-145 -53 0
-145 -89 0
-145 -66 0
-145 -32 0
145 -71 -25 28 -42 -35 -93 53 89 66 32 0
-146 26 0
-146 1 0
-146 5 0
-146 -86 0
-146 -48 0
-146 100 0
-146 76 0
-146 46 0
-146 37 0
-146 44 0
146 -26 -1 -5 86 48 -100 -76 -46 -37 -44 0
-147 -80 0
-147 -8 0
-147 74 0
-147 -22 0
-147 -49 0
-147 -57 0
-147 -6 0
-147 41 0
-147 -61 0
-147 86 0
147 80 8 -74 22 49 57 6 -41 61 -86 0
-148 80 0
-148 -95 0
-148 79 0
-148 -65 0
-148 -73 0
-148 -43 0
-148 12 0
-148 -94 0
-148 15 0
-148 -97 0
148 -80 95 -79 65 73 43 -12 94 -15 97 0
-149 57 0
-149 -70 0
-149 -10 0
-149 -25 0
-149 38 0
-149 -27 0
-149 -78 0
-149 67 0
-149 -36 0
-149 9 0
149 -57 70 10 25 -38 27 78 -67 36 -9 0
-150 87 0
-150 60 0
-150 -75 0
-150 -38 0
-150 63 0
-150 -3 0
-150 -40 0
-150 -74 0
-150 55 0
-150 -44 0
150 -87 -60 75 38 -63 3 40 74 -55 44 0
141 142 143 144 145 146 147 148 149 150 0
-151 -7 0
-151 86 0
-151 19 0
-151 -74 0
-151 48 0
-151 -69 0
-151 37 0
-151 -26 0
-151 49 0
-151 -52 0
151 7 -86 -19 74 -48 69 -37 26 -49 52 0
-152 4 0
-152 84 0
-152 11 0
-152 82 0
-152 -79 0
-152 27 0
-152 -25 0
-152 23 0
-152 -85 0
-152 72 0
152 -4 -84 -11 -82 79 -27 25 -23 85 -72 0
-153 -22 0
-153 -65 0
-153 79 0
-153 5 0
-153 21 0
-153 -20 0
-153 -3 0
-153 9 0
-153 92 0
-153 90 0
153 22 65 -79 -5 -21 20 3 -9 -92 -90 0
-154 -19 0
-154 -61 0
-154 60 0
-154 64 0
-154 -92 0
-154 -43 0
-154 91 0
-154 59 0
-154 11 0
-154 -79 0
154 19 61 -60 -64 92 43 -91 -59 -11 79 0
-155 -36 0
-155 -3 0
-155 -23 0
-155 -96 0
-155 -12 0
-155 86 0
-155 -4 0
-155 -14 0
-155 17 0
-155 25 0
155 36 3 23 96 12 -86 4 14 -17 -25 0
-156 56 0
-156 -7 0
-156 -73 0
-156 -57 0
-156 -25 0
-156 85 0
-156 -27 0
-156 20 0
-156 -21 0
-156 50 0
156 -56 7 73 57 25 -85 27 -20 21 -50 0
-157 -85 0
-157 -41 0
-157 13 0
-157 56 0
-157 18 0
-157 35 0
-157 98 0
-157 -24 0
-157 1 0
-157 38 0
157 85 41 -13 -56 -18 -35 -98 24 -1 -38 0
-158 -10 0
-158 -62 0
-158 -8 0
-158 3 0
-158 -72 0
-158 -14 0
-158 34 0
-158 7 0
-158 55 0
-158 89 0
158 10 62 8 -3 72 14 -34 -7 -55 -89 0
-159 -45 0
-159 -92 0
-159 18 0
-159 -70 0
-159 -52 0
-159 3 0
-159 6 0
-159 32 0
-159 -72 0
-159 20 0
159 45 92 -18 70 52 -3 -6 -32 72 -20 0
-160 -30 0
-160 34 0
-160 43 0
-160 77 0
-160 -65 0
-160 -49 0
-160 56 0
-160 50 0
-160 35 0
-160 -48 0
160 30 -34 -43 -77 65 49 -56 -50 -35 48 0
151 152 153 154 155 156 157 158 159 160 0
-161 -65 0
-161 70 0
-161 93 0
-161 73 0
-161 -47 0
-161 99 0
-161 34 0
-161 26 0
-161 14 0
-161 98 0
161 65 -70 -93 -73 47 -99 -34 -26 -14 -98 0
-162 28 0
-162 -17 0
-162 -83 0
-162 -40 0
-162 63 0
-162 80 0
-162 -10 0
-162 15 0
-162 -13 0
-162 -58 0
162 -28 17 83 40 -63 -80 10 -15 13 58 0
-163 49 0
-163 -98 0
-163 -71 0
-163 14 0
-163 -35 0
-163 92 0
-163 8 0
-163 70 0
-163 -69 0
-163 -41 0
163 -49 98 71 -14 35 -92 -8 -70 69 41 0
-164 24 0
-164 89 0
-164 -60 0
-164 35 0
-164 6 0
-164 -30 0
-164 -40 0
-164 -81 0
-164 -5 0
-164 12 0
164 -24 -89 60 -35 -6 30 40 81 5 -12 0
-165 -14 0
-165 -11 0
-165 -98 0
-165 -88 0
-165 18 0
-165 48 0
-165 -52 0
-165 -64 0
-165 13 0
-165 -38 0
165 14 11 98 88 -18 -48 52 64 -13 38 0
-166 47 0
-166 -87 0
-166 8 0
-166 69 0
-166 -57 0
-166 -38 0
-166 -51 0
-166 27 0
-166 -75 0
-166 -59 0
166 -47 87 -8 -69 57 38 51 -27 75 59 0
-167 -94 0
-167 -69 0
-167 -28 0
-167 -58 0
-167 -83 0
-167 -80 0
-167 60 0
-167 15 0
-167 -29 0
-167 -53 0
167 94 69 28 58 83 80 -60 -15 29 53 0
-168 -58 0
-168 -12 0
-168 -2 0
-168 37 0
-168 -66 0
-168 25 0
-168 -45 0
-168 61 0
-168 28 0
-168 -94 0
168 58 12 2 -37 66 -25 45 -61 -28 94 0
-169 64 0
-169 -22 0
-169 98 0
-169 11 0
-169 -67 0
-169 -1 0
-169 29 0
-169 -60 0
-169 91 0
-169 -100 0
169 -64 22 -98 -11 67 1 -29 60 -91 100 0
-170 44 0
-170 88 0
-170 35 0
-170 91 0
-170 27 0
-170 82 0
-170 90 0
-170 19 0
-170 61 0
-170 26 0
170 -44 -88 -35 -91 -27 -82 -90 -19 -61 -26 0
161 162 163 164 165 166 167 168 169 170 0
-171 -61 0
-171 -33 0
-171 35 0
-171 90 0
-171 74 0
-171 -9 0
-171 -64 0
-171 41 0
-171 -87 0
-171 -8 0
171 61 33 -35 -90 -74 9 64 -41 87 8 0
-172 -2 0
-172 -91 0
-172 69 0
-172 22 0
-172 78 0
-172 99 0
-172 -27 0
-172 -97 0
-172 -15 0
-172 -54 0
172 2 91 -69 -22 -78 -99 27 97 15 54 0
-173 -30 0
-173 -95 0
-173 -18 0
-173 4 0
-173 75 0
-173 -51 0
-173 68 0
-173 57 0
-173 -83 0
-173 64 0
173 30 95 18 -4 -75 51 -68 -57 83 -64 0
-174 -87 0
-174 25 0
-174 38 0
-174 61 0
-174 41 0
-174 100 0
-174 -52 0
-174 -50 0
-174 18 0
-174 -9 0
174 87 -25 -38 -61 -41 -100 52 50 -18 9 0
-175 7 0
-175 33 0
-175 6 0
-175 -2 0
-175 89 0
-175 61 0
-175 -92 0
-175 -50 0
-175 22 0
-175 -82 0
175 -7 -33 -6 2 -89 -61 92 50 -22 82 0
-176 64 0
-176 -86 0
-176 72 0
-176 -94 0
-176 90 0
-176 -4 0
-176 33 0
-176 -77 0
-176 -36 0
-176 19 0
176 -64 86 -72 94 -90 4 -33 77 36 -19 0
-177 -8 0
-177 -61 0
-177 -30 0
-177 -88 0
-177 -27 0
-177 -98 0
-177 17 0
-177 13 0
-177 -18 0
-177 -43 0
177 8 61 30 88 27 98 -17 -13 18 43 0
-178 39 0
-178 57 0
-178 74 0
-178 3 0
-178 33 0
-178 -49 0
-178 -90 0
-178 44 0
-178 69 0
-178 -81 0
178 -39 -57 -74 -3 -33 49 90 -44 -69 81 0
-179 61 0
-179 19 0
-179 -35 0
-179 -45 0
-179 -70 0
-179 30 0
-179 40 0
-179 36 0
-179 90 0
-179 64 0
179 -61 -19 35 45 70 -30 -40 -36 -90 -64 0
-180 -33 0
-180 -67 0
-180 61 0
-180 47 0
-180 44 0
-180 -18 0
-180 -28 0
-180 -32 0
-180 59 0
-180 17 0
180 33 67 -61 -47 -44 18 28 32 -59 -17 0
171 172 173 174 175 176 177 178 179 180 0
-181 91 0
-181 3 0
-181 -52 0
-181 58 0
-181 60 0
-181 25 0
-181 -81 0
-181 -13 0
-181 7 0
-181 31 0
181 -91 -3 52 -58 -60 -25 81 13 -7 -31 0
-182 -33 0
-182 -93 0
-182 -51 0
-182 -74 0
-182 -94 0
-182 -66 0
-182 -95 0
-182 -68 0
-182 -31 0
-182 -59 0
182 33 93 51 74 94 66 95 68 31 59 0
-183 68 0
-183 -72 0
-183 -96 0
-183 -2 0
-183 -54 0
-183 -41 0
-183 91 0
-183 -21 0
-183 63 0
-183 3 0
183 -68 72 96 2 54 41 -91 21 -63 -3 0
-184 -6 0
-184 42 0
-184 -94 0
-184 -12 0
-184 97 0
-184 -64 0
-184 -81 0
-184 28 0
-184 52 0
-184 63 0
184 6 -42 94 12 -97 64 81 -28 -52 -63 0
-185 35 0
-185 17 0
-185 75 0
-185 60 0
-185 -30 0
-185 99 0
-185 40 0
-185 -66 0
-185 -26 0
-185 12 0
185 -35 -17 -75 -60 30 -99 -40 66 26 -12 0
-186 -85 0
-186 97 0
-186 99 0
-186 -76 0
-186 -46 0
-186 82 0
-186 87 0
-186 -33 0
-186 -10 0
-186 -36 0
186 85 -97 -99 76 46 -82 -87 33 10 36 0
-187 -37 0
-187 -16 0
-187 -43 0
-187 -96 0
-187 2 0
-187 -14 0
-187 -72 0
-187 57 0
-187 15 0
-187 100 0
187 37 16 43 96 -2 14 72 -57 -15 -100 0
-188 98 0
-188 93 0
-188 84 0
-188 -99 0
-188 -28 0
-188 53 0
-188 -86 0
-188 -96 0
-188 64 0
-188 69 0
188 -98 -93 -84 99 28 -53 86 96 -64 -69 0
-189 57 0
-189 -16 0
-189 89 0
-189 -13 0
-189 -95 0
-189 -69 0
-189 27 0
-189 -60 0
-189 -91 0
-189 -58 0
189 -57 16 -89 13 95 69 -27 60 91 58 0
-190 -96 0
-190 45 0
-190 -7 0
-190 -54 0
-190 2 0
-190 64 0
-190 -97 0
-190 -58 0
-190 -21 0
-190 53 0
190 96 -45 7 54 -2 -64 97 58 21 -53 0
181 182 183 184 185 186 187 188 189 190 0
-191 -76 0
-191 48 0
-191 53 0
-191 31 0
-191 -29 0
-191 69 0
-191 -68 0
-191 -42 0
-191 58 0
-191 88 0
191 76 -48 -53 -31 29 -69 68 42 -58 -88 0
-192 96 0
-192 14 0
-192 -84 0
-192 32 0
-192 -82 0
-192 8 0
-192 -83 0
-192 -75 0
-192 -87 0
-192 -59 0
192 -96 -14 84 -32 82 -8 83 75 87 59 0
-193 -55 0
-193 13 0
-193 70 0
-193 -24 0
-193 -21 0
-193 -84 0
-193 -15 0
-193 78 0
-193 -42 0
-193 -37 0
193 55 -13 -70 24 21 84 15 -78 42 37 0
-194 72 0
-194 14 0
-194 90 0
-194 -5 0
-194 -59 0
-194 51 0
-194 6 0
-194 32 0
-194 1 0
-194 -18 0
194 -72 -14 -90 5 59 -51 -6 -32 -1 18 0
-195 -18 0
-195 -9 0
-195 88 0
-195 95 0
-195 27 0
-195 16 0
-195 53 0
-195 -82 0
-195 -25 0
-195 2 0
195 18 9 -88 -95 -27 -16 -53 82 25 -2 0
-196 -38 0
-196 23 0
-196 10 0
-196 -8 0
-196 -29 0
-196 -46 0
-196 45 0
-196 96 0
-196 -75 0
-196 -42 0
196 38 -23 -10 8 29 46 -45 -96 75 42 0
-197 -11 0
-197 18 0
-197 54 0
-197 -41 0
-197 81 0
-197 -55 0
-197 27 0
-197 38 0
-197 95 0
-197 85 0
197 11 -18 -54 41 -81 55 -27 -38 -95 -85 0
-198 36 0
-198 94 0
-198 -29 0
-198 4 0
-198 -93 0
-198 -63 0
-198 66 0
-198 26 0
-198 -30 0
-198 91 0
198 -36 -94 29 -4 93 63 -66 -26 30 -91 0
-199 96 0
-199 -51 0
-199 39 0
-199 97 0
-199 77 0
-199 89 0
-199 7 0
-199 -75 0
-199 20 0
-199 -49 0
199 -96 51 -39 -97 -77 -89 -7 75 -20 49 0
-200 -58 0
-200 86 0
-200 100 0
-200 24 0
-200 94 0
-200 -16 0
-200 11 0
-200 -75 0
-200 85 0
-200 -84 0
200 58 -86 -100 -24 -94 16 -11 75 -85 84 0
191 192 193 194 195 196 197 198 199 200 0
